
  32    4
  10   10   10   10

   0   0   0   0   0   1 2 
   7  10  10  10  10   1 3 
  10  10  10  10  10   1 4 
   9  10  10  10  10   2 6 5 
   6  10  10  10  10   2 11 8 
   9  10  10  10  10   1 7 
   7  10  10  10  10   1 9 
   6  10  10  10  10   1 9 
   2  10  10  10  10   2 14 10 
   4  10  10  10  10   2 13 12 
   5  10  10  10  10   1 12 
   6  10  10  10  10   2 16 15 
   2  10  10  10  10   2 16 15 
   4  10  10  10  10   2 16 15 
  10  10  10  10  10   2 18 17 
  10  10  10  10  10   1 17 
   5  10  10  10  10   2 21 19 
   9  10  10  10  10   2 21 20 
   5  10  10  10  10   2 23 22 
   4  10  10  10  10   2 25 23 
  10  10  10  10  10   1 22 
   9  10  10  10  10   3 26 25 24 
   4  10  10  10  10   2 26 24 
   4  10  10  10  10   3 31 28 27 
  10  10  10  10  10   3 31 30 28 
   8  10  10  10  10   2 30 28 
   8  10  10  10  10   2 30 29 
   5  10  10  10  10   1 29 
   1  10  10  10  10   1 32
   6  10  10  10  10   1 32
   4  10  10  10  10   1 32
   0   0   0   0   0   0 
